p cnf 42 136
1 -2 -3 0
-1 2 -3 0
1 2 3 0
-1 -2 3 0
5 1 0
5 -1 0
7 5 0
7 -6 0
-5 6 -7 0
-4 7 -8 0
4 -7 -8 0
-4 -7 8 0
4 7 8 0
3 8 -9 0
-3 -8 -9 0
3 -8 9 0
-3 8 9 0
10 11 -12 0
-10 -11 -12 0
10 -11 12 0
-10 11 12 0
-13 -4 0
-13 -12 0
4 12 13 0
-15 -14 0
-15 -11 0
14 11 15 0
13 -15 -16 0
-13 15 -16 0
13 15 16 0
-13 -15 16 0
19 -17 0
19 -18 0
17 18 -19 0
16 19 -20 0
-16 -19 -20 0
16 -19 20 0
-16 19 20 0
21 5 0
21 -18 0
-5 18 -21 0
23 22 0
23 11 0
-22 -11 -23 0
-21 23 -24 0
21 -23 -24 0
-21 -23 24 0
21 23 24 0
1 -25 0
-1 -25 0
26 12 0
26 -25 0
-12 25 -26 0
-27 -26 0
-27 2 0
26 -2 27 0
-28 17 0
-28 -4 0
-17 4 28 0
29 10 0
29 28 0
-10 -28 -29 0
30 27 0
30 29 0
-27 -29 -30 0
-31 -24 0
-31 30 0
24 -30 31 0
-32 29 0
-32 12 0
-29 -12 32 0
-32 -14 -33 0
32 14 -33 0
-32 14 33 0
32 -14 33 0
34 12 0
34 6 0
-12 -6 -34 0
-2 -18 -35 0
2 18 -35 0
-2 18 35 0
2 -18 35 0
-34 -35 -36 0
34 35 -36 0
-34 35 36 0
34 -35 36 0
-37 33 0
-37 36 0
-33 -36 37 0
-38 -31 0
-38 37 0
31 -37 38 0
-39 -4 0
-39 29 0
4 -29 39 0
40 38 0
40 -39 0
-38 39 -40 0
41 20 0
41 -40 0
-20 40 -41 0
-42 9 0
-42 41 0
-9 -41 42 0
20 -14 0
31 -16 -37 -33 -27 -21 0
-3 -18 19 -22 15 -27 0
-14 -1 0
42 4 27 15 0
26 -32 0
7 -16 36 28 0
7 1 18 0
-7 -8 14 -3 0
38 -16 13 -39 -23 -2 0
40 12 3 -26 7 -36 0
38 11 0
-34 20 0
-16 -17 5 -33 0
23 8 20 -15 38 0
-35 -12 -2 -34 0
28 16 -26 6 0
-20 -14 -34 15 17 0
33 -23 -27 -32 9 0
-15 -8 0
-8 -26 0
10 36 -28 17 -7 -8 0
33 32 39 -41 -36 0
-17 -37 0
-6 35 -40 5 10 0
-16 -32 0
-30 -42 1 -31 0
26 40 15 -10 0
-42 -35 31 -14 -13 0
6 -1 0
-40 28 -27 0
42 0
